16110.2,43.23,49.11
15844.36,43.95,49.93
15070.68,46.21,52.49
15136.24,46.01,52.27
17052.15,40.84,46.39
16007.83,43.5,49.42
15353.66,45.36,51.53
15255.15,45.65,51.86
15353.74,45.36,51.53
14822.29,46.98,53.37
15441.48,45.1,51.23
16194.59,43.0,48.85
14615.62,47.65,54.13
15888.83,43.83,49.79
16432.47,42.38,48.14
16451.42,42.33,48.09
17531.87,39.72,45.13
14450.48,48.19,54.75
15501.23,44.93,51.04
16179.95,43.04,48.9
